outputs/case_239.model.txt
financial_holding_violation = True
remove_manager_or_staff = True
revoke_permit = False
dispose_subsidiary_shares = False
remove_or_suspend_director_or_supervisor = False
other_necessary_measures = False
suspend_subsidiary_business_part_or_all = False
revoke_statutory_meeting_resolution = False
remove_manager_or_staff_or_suspend = False
suspend_partial_business = False
order_provision_of_reserve_funds = False
restrict_investment = False
order_closure_of_branches_or_departments = False
order_or_prohibit_asset_disposition = True
revoke_all_or_part_business_permit = False
revoke_shareholders_or_board_resolution = False
order_provision_of_reserve_or_capital_increase = False
notify_ministry_of_economy = False
notify_company_registration_authority = False
restrict_business_scope = False
order_company_remove_manager_or_staff = True
remove_or_suspend_company_director_or_supervisor = False
penalty_decision_made = True
exempt_from_compliance_unit_duties_4 = False
operational_deficiency_exists = True
designate_guidance_agency = True
consultation_channel = False
establish_clear_communication_system = False
confirm_regulations_updated = False
compliance_supervisor_issues_opinion_before_new_business = False
set_evaluation_procedures_and_supervise = False
provide_appropriate_training = False
supervise_implementation_of_internal_rules = False
unit_is_internal_audit = False
report_submitted = False
includes_deficiency_analysis = False
includes_improvement_suggestions = False
self_assessment_times_per_year = 0
self_assessment_frequency = 0
subsidiary_shares_held = 0
legal_limit_shares = 0
legal_limit_directors = 0
subsidiary_directors_appointed = False
prohibit_use_financial_holding_name = False
dissolution_and_liquidation = False
revoke_permit_penalty = False
apply_bank_law_61_1 = True
director_supervisor_removal_notify = True
violation_occurred = True
business_guidance = True
e_payment_violation = True
internal_audit_exemption = True
report_to_board_includes_analysis = False
penalty_types = True
insurance_agent_violation = True
penalty = False
revoke_permit_requirements = True
document_retention_years = 0
self_assessment_document_retention = False
penalties_applicable = True
collect_local_financial_regulations = False
implement_self_assessment = False
ensure_compliance_supervisor_qualification = False
ensure_compliance_resources_adequate = False
establish_risk_assessment_and_monitoring = False
engage_external_expert_for_high_risk_verification = False
foreign_branch_compliance = False
bill_finance_violation = True
bank_violation = True
consultation_channel_established = False
compliance_unit_duties = False
non_e_payment_business_operated_with_permit = False
non_e_payment_business_violation = True